60
1 0 2
2 0 1
2 1 1
3 0 1
3 1 1
3 2 1
4 0 1
4 1 2
4 2 1
4 3 2
5 0 1
5 1 1
5 2 2
5 3 2
5 4 2
6 0 2
6 1 2
6 2 2
6 3 2
6 4 1
6 5 1
7 0 2
7 1 2
7 2 2
7 3 2
7 4 2
7 5 1
7 6 2
8 0 2
8 1 2
8 2 1
8 3 2
8 4 1
8 5 2
8 6 1
8 7 2
9 0 2
9 1 1
9 2 1
9 3 1
9 4 1
9 5 1
9 6 2
9 7 1
9 8 1
10 0 1
10 1 1
10 2 2
10 3 1
10 4 1
10 5 2
10 6 2
10 7 1
10 8 1
10 9 2
11 0 2
11 1 2
11 2 1
11 3 2
11 4 2
11 5 2
11 6 2
11 7 2
11 8 2
11 9 1
11 10 1
12 0 1
12 1 2
12 2 2
12 3 1
12 4 2
12 5 2
12 6 2
12 7 2
12 8 1
12 9 2
12 10 2
12 11 2
13 0 1
13 1 1
13 2 1
13 3 1
13 4 1
13 5 1
13 6 2
13 7 1
13 8 2
13 9 1
13 10 1
13 11 1
13 12 2
14 0 2
14 1 2
14 2 1
14 3 1
14 4 2
14 5 2
14 6 2
14 7 1
14 8 2
14 9 1
14 10 2
14 11 1
14 12 1
14 13 1
15 0 1
15 1 1
15 2 2
15 3 1
15 4 1
15 5 2
15 6 1
15 7 2
15 8 1
15 9 1
15 10 2
15 11 1
15 12 1
15 13 1
15 14 2
16 0 1
16 1 2
16 2 2
16 3 1
16 4 1
16 5 2
16 6 2
16 7 1
16 8 1
16 9 2
16 10 1
16 11 2
16 12 2
16 13 1
16 14 1
16 15 1
17 0 2
17 1 2
17 2 1
17 3 2
17 4 2
17 5 2
17 6 1
17 7 1
17 8 1
17 9 2
17 10 2
17 11 2
17 12 1
17 13 2
17 14 2
17 15 1
17 16 2
18 0 1
18 1 1
18 2 2
18 3 1
18 4 1
18 5 2
18 6 1
18 7 1
18 8 1
18 9 1
18 10 2
18 11 2
18 12 2
18 13 1
18 14 2
18 15 2
18 16 2
18 17 2
19 0 2
19 1 1
19 2 2
19 3 2
19 4 1
19 5 1
19 6 1
19 7 1
19 8 1
19 9 1
19 10 1
19 11 2
19 12 1
19 13 2
19 14 2
19 15 2
19 16 2
19 17 2
19 18 2
20 0 2
20 1 2
20 2 2
20 3 2
20 4 1
20 5 2
20 6 2
20 7 2
20 8 1
20 9 2
20 10 1
20 11 2
20 12 2
20 13 1
20 14 1
20 15 1
20 16 1
20 17 2
20 18 2
20 19 2
21 0 2
21 1 1
21 2 1
21 3 2
21 4 1
21 5 1
21 6 2
21 7 2
21 8 1
21 9 1
21 10 1
21 11 1
21 12 2
21 13 1
21 14 1
21 15 1
21 16 2
21 17 1
21 18 1
21 19 2
21 20 1
22 0 2
22 1 1
22 2 2
22 3 1
22 4 2
22 5 2
22 6 1
22 7 1
22 8 2
22 9 1
22 10 2
22 11 1
22 12 2
22 13 2
22 14 1
22 15 2
22 16 1
22 17 1
22 18 1
22 19 2
22 20 1
22 21 1
23 0 1
23 1 2
23 2 2
23 3 2
23 4 2
23 5 1
23 6 1
23 7 2
23 8 2
23 9 1
23 10 2
23 11 1
23 12 2
23 13 1
23 14 1
23 15 2
23 16 1
23 17 2
23 18 2
23 19 2
23 20 2
23 21 1
23 22 2
24 0 1
24 1 2
24 2 2
24 3 2
24 4 2
24 5 1
24 6 1
24 7 1
24 8 1
24 9 1
24 10 2
24 11 1
24 12 2
24 13 2
24 14 2
24 15 1
24 16 2
24 17 2
24 18 1
24 19 2
24 20 1
24 21 2
24 22 1
24 23 1
25 0 1
25 1 2
25 2 1
25 3 1
25 4 2
25 5 2
25 6 1
25 7 2
25 8 2
25 9 1
25 10 1
25 11 2
25 12 1
25 13 2
25 14 1
25 15 2
25 16 2
25 17 1
25 18 2
25 19 1
25 20 1
25 21 1
25 22 1
25 23 2
25 24 2
26 0 1
26 1 1
26 2 1
26 3 1
26 4 1
26 5 2
26 6 2
26 7 2
26 8 2
26 9 1
26 10 2
26 11 2
26 12 2
26 13 2
26 14 2
26 15 1
26 16 1
26 17 1
26 18 1
26 19 1
26 20 2
26 21 1
26 22 1
26 23 1
26 24 2
26 25 2
27 0 1
27 1 1
27 2 1
27 3 1
27 4 2
27 5 2
27 6 2
27 7 2
27 8 1
27 9 1
27 10 2
27 11 2
27 12 2
27 13 2
27 14 1
27 15 2
27 16 1
27 17 1
27 18 1
27 19 2
27 20 1
27 21 2
27 22 2
27 23 2
27 24 2
27 25 1
27 26 1
28 0 2
28 1 1
28 2 2
28 3 2
28 4 2
28 5 2
28 6 2
28 7 2
28 8 1
28 9 2
28 10 1
28 11 2
28 12 1
28 13 2
28 14 2
28 15 2
28 16 2
28 17 2
28 18 2
28 19 1
28 20 2
28 21 1
28 22 1
28 23 1
28 24 1
28 25 1
28 26 2
28 27 2
29 0 1
29 1 1
29 2 2
29 3 2
29 4 1
29 5 2
29 6 1
29 7 2
29 8 1
29 9 2
29 10 2
29 11 1
29 12 1
29 13 1
29 14 2
29 15 2
29 16 2
29 17 2
29 18 1
29 19 2
29 20 1
29 21 2
29 22 2
29 23 1
29 24 1
29 25 1
29 26 1
29 27 1
29 28 2
30 0 2
30 1 1
30 2 2
30 3 1
30 4 1
30 5 1
30 6 2
30 7 1
30 8 1
30 9 2
30 10 1
30 11 1
30 12 1
30 13 1
30 14 1
30 15 2
30 16 1
30 17 1
30 18 1
30 19 2
30 20 1
30 21 2
30 22 2
30 23 1
30 24 2
30 25 2
30 26 1
30 27 1
30 28 1
30 29 2
31 0 2
31 1 1
31 2 2
31 3 2
31 4 2
31 5 1
31 6 1
31 7 1
31 8 1
31 9 1
31 10 2
31 11 2
31 12 2
31 13 2
31 14 2
31 15 2
31 16 2
31 17 1
31 18 2
31 19 2
31 20 2
31 21 1
31 22 2
31 23 1
31 24 2
31 25 2
31 26 2
31 27 1
31 28 2
31 29 1
31 30 2
32 0 1
32 1 1
32 2 2
32 3 2
32 4 1
32 5 1
32 6 1
32 7 1
32 8 1
32 9 1
32 10 2
32 11 2
32 12 2
32 13 1
32 14 2
32 15 2
32 16 1
32 17 2
32 18 1
32 19 1
32 20 1
32 21 1
32 22 2
32 23 2
32 24 2
32 25 1
32 26 2
32 27 1
32 28 1
32 29 2
32 30 1
32 31 1
33 0 2
33 1 2
33 2 1
33 3 1
33 4 2
33 5 1
33 6 1
33 7 2
33 8 1
33 9 1
33 10 1
33 11 2
33 12 1
33 13 2
33 14 2
33 15 2
33 16 2
33 17 2
33 18 1
33 19 1
33 20 2
33 21 2
33 22 1
33 23 2
33 24 1
33 25 2
33 26 1
33 27 1
33 28 1
33 29 1
33 30 2
33 31 1
33 32 2
34 0 1
34 1 2
34 2 2
34 3 2
34 4 1
34 5 2
34 6 1
34 7 2
34 8 1
34 9 2
34 10 1
34 11 2
34 12 2
34 13 1
34 14 1
34 15 2
34 16 2
34 17 2
34 18 2
34 19 2
34 20 2
34 21 1
34 22 1
34 23 2
34 24 2
34 25 1
34 26 1
34 27 2
34 28 1
34 29 1
34 30 2
34 31 1
34 32 2
34 33 1
35 0 1
35 1 1
35 2 1
35 3 2
35 4 2
35 5 1
35 6 2
35 7 1
35 8 1
35 9 2
35 10 1
35 11 1
35 12 2
35 13 1
35 14 2
35 15 1
35 16 1
35 17 2
35 18 2
35 19 1
35 20 1
35 21 1
35 22 2
35 23 1
35 24 1
35 25 1
35 26 1
35 27 1
35 28 1
35 29 1
35 30 1
35 31 1
35 32 1
35 33 1
35 34 1
36 0 2
36 1 1
36 2 1
36 3 2
36 4 1
36 5 1
36 6 1
36 7 2
36 8 1
36 9 1
36 10 2
36 11 1
36 12 2
36 13 1
36 14 2
36 15 1
36 16 2
36 17 2
36 18 1
36 19 2
36 20 2
36 21 1
36 22 1
36 23 1
36 24 2
36 25 1
36 26 1
36 27 1
36 28 1
36 29 1
36 30 1
36 31 2
36 32 1
36 33 1
36 34 2
36 35 2
37 0 2
37 1 2
37 2 2
37 3 1
37 4 2
37 5 2
37 6 1
37 7 1
37 8 1
37 9 1
37 10 2
37 11 1
37 12 2
37 13 1
37 14 2
37 15 2
37 16 1
37 17 1
37 18 2
37 19 1
37 20 2
37 21 2
37 22 2
37 23 1
37 24 2
37 25 1
37 26 1
37 27 1
37 28 1
37 29 2
37 30 2
37 31 2
37 32 2
37 33 1
37 34 2
37 35 1
37 36 2
38 0 1
38 1 1
38 2 1
38 3 2
38 4 1
38 5 2
38 6 1
38 7 1
38 8 2
38 9 2
38 10 1
38 11 1
38 12 2
38 13 1
38 14 2
38 15 1
38 16 2
38 17 2
38 18 2
38 19 1
38 20 1
38 21 2
38 22 1
38 23 1
38 24 2
38 25 1
38 26 2
38 27 1
38 28 1
38 29 2
38 30 1
38 31 1
38 32 2
38 33 1
38 34 2
38 35 1
38 36 2
38 37 2
39 0 2
39 1 1
39 2 2
39 3 1
39 4 2
39 5 1
39 6 1
39 7 2
39 8 2
39 9 2
39 10 1
39 11 1
39 12 2
39 13 1
39 14 1
39 15 2
39 16 1
39 17 2
39 18 1
39 19 1
39 20 1
39 21 2
39 22 2
39 23 1
39 24 2
39 25 1
39 26 2
39 27 1
39 28 1
39 29 1
39 30 1
39 31 2
39 32 1
39 33 1
39 34 2
39 35 2
39 36 1
39 37 2
39 38 1
40 0 2
40 1 1
40 2 2
40 3 1
40 4 2
40 5 2
40 6 2
40 7 2
40 8 2
40 9 1
40 10 1
40 11 1
40 12 1
40 13 2
40 14 1
40 15 1
40 16 2
40 17 1
40 18 1
40 19 2
40 20 2
40 21 2
40 22 2
40 23 2
40 24 1
40 25 1
40 26 2
40 27 1
40 28 2
40 29 2
40 30 2
40 31 1
40 32 2
40 33 1
40 34 1
40 35 1
40 36 1
40 37 1
40 38 1
40 39 1
41 0 2
41 1 1
41 2 1
41 3 1
41 4 1
41 5 1
41 6 2
41 7 1
41 8 2
41 9 1
41 10 2
41 11 2
41 12 1
41 13 2
41 14 1
41 15 1
41 16 2
41 17 1
41 18 1
41 19 2
41 20 1
41 21 2
41 22 2
41 23 1
41 24 2
41 25 1
41 26 1
41 27 1
41 28 1
41 29 1
41 30 1
41 31 1
41 32 2
41 33 1
41 34 1
41 35 1
41 36 2
41 37 2
41 38 2
41 39 2
41 40 1
42 0 1
42 1 1
42 2 2
42 3 1
42 4 2
42 5 1
42 6 2
42 7 1
42 8 1
42 9 2
42 10 2
42 11 1
42 12 2
42 13 1
42 14 2
42 15 2
42 16 1
42 17 1
42 18 1
42 19 2
42 20 2
42 21 2
42 22 2
42 23 1
42 24 2
42 25 1
42 26 2
42 27 1
42 28 1
42 29 1
42 30 1
42 31 2
42 32 2
42 33 1
42 34 1
42 35 1
42 36 2
42 37 1
42 38 1
42 39 1
42 40 1
42 41 1
43 0 2
43 1 2
43 2 1
43 3 2
43 4 2
43 5 2
43 6 2
43 7 1
43 8 1
43 9 1
43 10 2
43 11 1
43 12 2
43 13 2
43 14 1
43 15 1
43 16 1
43 17 2
43 18 2
43 19 1
43 20 1
43 21 2
43 22 2
43 23 1
43 24 2
43 25 1
43 26 2
43 27 2
43 28 2
43 29 2
43 30 2
43 31 2
43 32 2
43 33 1
43 34 2
43 35 2
43 36 1
43 37 2
43 38 2
43 39 1
43 40 2
43 41 2
43 42 1
44 0 1
44 1 1
44 2 2
44 3 1
44 4 1
44 5 2
44 6 2
44 7 2
44 8 2
44 9 2
44 10 2
44 11 2
44 12 1
44 13 1
44 14 1
44 15 2
44 16 2
44 17 1
44 18 2
44 19 1
44 20 1
44 21 1
44 22 2
44 23 1
44 24 2
44 25 2
44 26 2
44 27 2
44 28 2
44 29 1
44 30 2
44 31 1
44 32 2
44 33 2
44 34 1
44 35 1
44 36 1
44 37 2
44 38 2
44 39 1
44 40 1
44 41 1
44 42 2
44 43 2
45 0 1
45 1 1
45 2 2
45 3 2
45 4 2
45 5 1
45 6 2
45 7 2
45 8 2
45 9 2
45 10 2
45 11 2
45 12 1
45 13 2
45 14 2
45 15 1
45 16 2
45 17 1
45 18 2
45 19 2
45 20 1
45 21 1
45 22 1
45 23 2
45 24 1
45 25 1
45 26 2
45 27 1
45 28 1
45 29 1
45 30 1
45 31 2
45 32 1
45 33 2
45 34 2
45 35 1
45 36 2
45 37 1
45 38 1
45 39 2
45 40 2
45 41 2
45 42 2
45 43 2
45 44 2
46 0 1
46 1 1
46 2 1
46 3 1
46 4 2
46 5 1
46 6 1
46 7 1
46 8 1
46 9 2
46 10 1
46 11 1
46 12 1
46 13 1
46 14 1
46 15 2
46 16 1
46 17 2
46 18 1
46 19 1
46 20 1
46 21 1
46 22 1
46 23 1
46 24 1
46 25 2
46 26 2
46 27 1
46 28 1
46 29 2
46 30 2
46 31 2
46 32 1
46 33 1
46 34 2
46 35 2
46 36 2
46 37 1
46 38 2
46 39 1
46 40 1
46 41 2
46 42 2
46 43 2
46 44 2
46 45 2
47 0 2
47 1 1
47 2 2
47 3 1
47 4 1
47 5 2
47 6 1
47 7 2
47 8 2
47 9 1
47 10 1
47 11 2
47 12 2
47 13 2
47 14 2
47 15 1
47 16 1
47 17 2
47 18 2
47 19 2
47 20 1
47 21 1
47 22 1
47 23 1
47 24 1
47 25 2
47 26 2
47 27 2
47 28 2
47 29 2
47 30 2
47 31 1
47 32 1
47 33 2
47 34 1
47 35 1
47 36 1
47 37 2
47 38 1
47 39 1
47 40 1
47 41 2
47 42 2
47 43 2
47 44 1
47 45 1
47 46 1
48 0 2
48 1 2
48 2 2
48 3 2
48 4 1
48 5 2
48 6 2
48 7 2
48 8 2
48 9 2
48 10 1
48 11 1
48 12 1
48 13 1
48 14 1
48 15 2
48 16 2
48 17 2
48 18 1
48 19 2
48 20 1
48 21 2
48 22 1
48 23 2
48 24 1
48 25 1
48 26 1
48 27 2
48 28 1
48 29 1
48 30 2
48 31 2
48 32 1
48 33 2
48 34 2
48 35 2
48 36 2
48 37 1
48 38 2
48 39 2
48 40 1
48 41 1
48 42 1
48 43 2
48 44 1
48 45 1
48 46 1
48 47 2
49 0 2
49 1 2
49 2 2
49 3 1
49 4 1
49 5 1
49 6 1
49 7 1
49 8 2
49 9 2
49 10 2
49 11 2
49 12 2
49 13 2
49 14 1
49 15 2
49 16 1
49 17 1
49 18 2
49 19 2
49 20 1
49 21 1
49 22 2
49 23 1
49 24 1
49 25 1
49 26 1
49 27 1
49 28 2
49 29 1
49 30 2
49 31 2
49 32 2
49 33 2
49 34 1
49 35 2
49 36 2
49 37 1
49 38 1
49 39 1
49 40 2
49 41 2
49 42 2
49 43 2
49 44 1
49 45 2
49 46 2
49 47 1
49 48 2
50 0 2
50 1 1
50 2 2
50 3 2
50 4 2
50 5 2
50 6 2
50 7 2
50 8 1
50 9 1
50 10 2
50 11 2
50 12 1
50 13 1
50 14 2
50 15 2
50 16 1
50 17 1
50 18 2
50 19 1
50 20 2
50 21 2
50 22 1
50 23 2
50 24 1
50 25 1
50 26 1
50 27 2
50 28 2
50 29 1
50 30 1
50 31 1
50 32 2
50 33 2
50 34 1
50 35 1
50 36 1
50 37 2
50 38 2
50 39 1
50 40 2
50 41 1
50 42 2
50 43 2
50 44 1
50 45 2
50 46 2
50 47 1
50 48 1
50 49 1
51 0 2
51 1 2
51 2 2
51 3 2
51 4 2
51 5 1
51 6 2
51 7 1
51 8 1
51 9 2
51 10 1
51 11 2
51 12 1
51 13 2
51 14 1
51 15 1
51 16 1
51 17 1
51 18 1
51 19 2
51 20 2
51 21 1
51 22 1
51 23 1
51 24 2
51 25 1
51 26 1
51 27 1
51 28 1
51 29 2
51 30 2
51 31 1
51 32 1
51 33 2
51 34 1
51 35 2
51 36 2
51 37 2
51 38 1
51 39 2
51 40 2
51 41 2
51 42 1
51 43 2
51 44 1
51 45 1
51 46 1
51 47 1
51 48 1
51 49 2
51 50 1
52 0 2
52 1 1
52 2 1
52 3 1
52 4 2
52 5 1
52 6 1
52 7 1
52 8 1
52 9 2
52 10 2
52 11 2
52 12 1
52 13 2
52 14 2
52 15 2
52 16 2
52 17 2
52 18 2
52 19 2
52 20 2
52 21 2
52 22 2
52 23 2
52 24 2
52 25 1
52 26 1
52 27 2
52 28 1
52 29 1
52 30 2
52 31 2
52 32 2
52 33 1
52 34 1
52 35 1
52 36 2
52 37 2
52 38 1
52 39 2
52 40 1
52 41 2
52 42 2
52 43 2
52 44 1
52 45 2
52 46 1
52 47 2
52 48 2
52 49 2
52 50 2
52 51 2
53 0 1
53 1 2
53 2 2
53 3 1
53 4 1
53 5 2
53 6 2
53 7 1
53 8 2
53 9 2
53 10 1
53 11 2
53 12 1
53 13 1
53 14 2
53 15 2
53 16 1
53 17 1
53 18 1
53 19 2
53 20 2
53 21 2
53 22 2
53 23 2
53 24 1
53 25 2
53 26 1
53 27 2
53 28 1
53 29 2
53 30 1
53 31 2
53 32 2
53 33 1
53 34 1
53 35 1
53 36 2
53 37 2
53 38 2
53 39 1
53 40 1
53 41 1
53 42 2
53 43 2
53 44 1
53 45 1
53 46 1
53 47 1
53 48 2
53 49 1
53 50 2
53 51 1
53 52 2
54 0 1
54 1 1
54 2 2
54 3 1
54 4 2
54 5 2
54 6 2
54 7 2
54 8 2
54 9 1
54 10 2
54 11 2
54 12 2
54 13 2
54 14 2
54 15 2
54 16 2
54 17 1
54 18 2
54 19 2
54 20 1
54 21 1
54 22 2
54 23 1
54 24 1
54 25 1
54 26 1
54 27 2
54 28 1
54 29 1
54 30 2
54 31 2
54 32 1
54 33 1
54 34 1
54 35 2
54 36 1
54 37 2
54 38 2
54 39 1
54 40 1
54 41 2
54 42 1
54 43 2
54 44 2
54 45 2
54 46 2
54 47 2
54 48 2
54 49 2
54 50 2
54 51 2
54 52 2
54 53 2
55 0 2
55 1 1
55 2 2
55 3 2
55 4 1
55 5 2
55 6 2
55 7 1
55 8 2
55 9 2
55 10 2
55 11 2
55 12 2
55 13 2
55 14 1
55 15 1
55 16 2
55 17 1
55 18 2
55 19 1
55 20 2
55 21 1
55 22 1
55 23 2
55 24 2
55 25 2
55 26 2
55 27 1
55 28 1
55 29 2
55 30 1
55 31 2
55 32 1
55 33 1
55 34 2
55 35 1
55 36 2
55 37 2
55 38 2
55 39 2
55 40 1
55 41 1
55 42 1
55 43 1
55 44 1
55 45 1
55 46 1
55 47 1
55 48 2
55 49 1
55 50 2
55 51 2
55 52 1
55 53 1
55 54 1
56 0 2
56 1 2
56 2 1
56 3 1
56 4 1
56 5 2
56 6 1
56 7 2
56 8 1
56 9 1
56 10 2
56 11 2
56 12 2
56 13 2
56 14 1
56 15 1
56 16 1
56 17 2
56 18 2
56 19 2
56 20 1
56 21 2
56 22 2
56 23 2
56 24 1
56 25 2
56 26 2
56 27 1
56 28 1
56 29 1
56 30 2
56 31 1
56 32 1
56 33 2
56 34 1
56 35 1
56 36 2
56 37 2
56 38 2
56 39 2
56 40 2
56 41 2
56 42 1
56 43 2
56 44 1
56 45 2
56 46 1
56 47 2
56 48 2
56 49 1
56 50 1
56 51 2
56 52 1
56 53 2
56 54 1
56 55 1
57 0 2
57 1 1
57 2 2
57 3 2
57 4 1
57 5 2
57 6 1
57 7 2
57 8 2
57 9 2
57 10 2
57 11 2
57 12 2
57 13 1
57 14 1
57 15 1
57 16 1
57 17 2
57 18 2
57 19 2
57 20 2
57 21 1
57 22 2
57 23 2
57 24 1
57 25 2
57 26 2
57 27 2
57 28 2
57 29 1
57 30 1
57 31 1
57 32 2
57 33 2
57 34 2
57 35 2
57 36 2
57 37 2
57 38 2
57 39 2
57 40 1
57 41 2
57 42 1
57 43 2
57 44 2
57 45 2
57 46 2
57 47 1
57 48 2
57 49 1
57 50 1
57 51 2
57 52 2
57 53 2
57 54 2
57 55 1
57 56 1
58 0 1
58 1 1
58 2 1
58 3 2
58 4 1
58 5 2
58 6 1
58 7 1
58 8 1
58 9 2
58 10 2
58 11 2
58 12 1
58 13 1
58 14 2
58 15 2
58 16 1
58 17 2
58 18 2
58 19 1
58 20 2
58 21 1
58 22 2
58 23 1
58 24 2
58 25 1
58 26 1
58 27 2
58 28 1
58 29 2
58 30 1
58 31 1
58 32 2
58 33 2
58 34 1
58 35 2
58 36 2
58 37 1
58 38 1
58 39 2
58 40 2
58 41 1
58 42 1
58 43 1
58 44 1
58 45 1
58 46 1
58 47 1
58 48 2
58 49 1
58 50 1
58 51 2
58 52 2
58 53 2
58 54 1
58 55 1
58 56 1
58 57 1
59 0 1
59 1 2
59 2 2
59 3 2
59 4 2
59 5 1
59 6 2
59 7 2
59 8 2
59 9 2
59 10 1
59 11 1
59 12 1
59 13 2
59 14 1
59 15 2
59 16 1
59 17 2
59 18 2
59 19 1
59 20 1
59 21 1
59 22 2
59 23 2
59 24 1
59 25 1
59 26 1
59 27 2
59 28 1
59 29 2
59 30 2
59 31 2
59 32 1
59 33 1
59 34 2
59 35 2
59 36 1
59 37 1
59 38 1
59 39 2
59 40 2
59 41 1
59 42 2
59 43 1
59 44 1
59 45 1
59 46 2
59 47 2
59 48 1
59 49 2
59 50 1
59 51 2
59 52 2
59 53 1
59 54 1
59 55 2
59 56 2
59 57 1
59 58 2
